minimize
obj: 10 - 0.7514604421867865 z_1,1_ + 0.13630411106843587 z_1,2_ - 2.0777811277728815 z_1,3_ - 0.7402312355554564 z_1,4_ + 1.2751059930197108 z_1,5_ - 0.24804757777809405 z_1,6_ - 2.254714843324912 z_1,7_ - 0.9572145608442337 z_1,8_ + 0.43813205053422144 z_1,9_ + 1.9821255564291906 z_1,10_ - 2.269581760696332 z_1,11_ - 1.8156292786962407 z_1,12_ + 0.32198382188500396 z_1,13_ - 0.7043586491887519 z_1,14_ - 0.0943354867558831 z_1,15_ - 0.2395990354959825 z_1,16_ + 1.1243017486296472 z_1,17_ + 0.6757521121477674 z_1,18_ - 0.6453345526924257 z_1,19_ + 0.3108292586937794 z_1,20_ - 1.2159098124263135 z_2,2_ - 1.1336362629060575 z_2,3_ + 0.48781263448480305 z_2,4_ - 0.6799104754126479 z_2,5_ - 1.3129177078550163 z_2,6_ + 1.6300949421944666 z_2,7_ - 1.9995456897279118 z_2,8_ - 1.9800876160716805 z_2,9_ + 0.5158072145785364 z_2,10_ - 0.7300076232127762 z_2,11_ - 1.0611910250980054 z_2,12_ - 0.329543758480736 z_2,13_ - 3.1709154622793667 z_2,14_ - 2.7983084934175184 z_2,15_ - 0.9786884739506766 z_2,16_ - 1.7863187107774527 z_2,17_ + 0.08364511286111809 z_2,18_ - 0.24545422863195698 z_2,19_ - 1.6315453641614663 z_2,20_ - 1.1795874291195338 z_3,3_ - 2.6124399497515354 z_3,4_ - 1.153445668517094 z_3,5_ - 0.26057734709165714 z_3,6_ - 2.150270432977079 z_3,7_ - 1.7963898658450441 z_3,8_ - 2.125978735008424 z_3,9_ - 0.3279947367476159 z_3,10_ + 1.9766130864409996 z_3,11_ - 0.0043865694841689895 z_3,12_ + 0.9986385676132117 z_3,13_ + 0.6814484302118027 z_3,14_ - 1.445179377358063 z_3,15_ + 0.44868329805051177 z_3,16_ + 0.9909997774047019 z_3,17_ + 2.3355093944791747 z_3,18_ - 2.141989636873405 z_3,19_ + 0.9902698412431499 z_3,20_ + 0.607622907309761 z_4,4_ - 0.40218661079771323 z_4,5_ + 0.9813202258175167 z_4,6_ + 0.7129567469872993 z_4,7_ - 1.9803441735221767 z_4,8_ + 2.261168841812271 z_4,9_ - 2.2574803427484817 z_4,10_ + 0.42293408256080856 z_4,11_ - 0.6380534703869951 z_4,12_ - 0.7017759428659618 z_4,13_ - 2.0257720155512704 z_4,14_ - 1.396014446218426 z_4,15_ + 1.2608155887412498 z_4,16_ - 0.8432297694975021 z_4,17_ - 0.3405895044017304 z_4,18_ - 2.084796112047597 z_4,19_ - 2.8638395603980005 z_4,20_ - 5.816553198229437 z_5,5_ + 0.18170251710656982 z_5,6_ + 0.47716483717272884 z_5,7_ - 2.5435277607954316 z_5,8_ + 0.5235184655953307 z_5,9_ - 2.7671285558478274 z_5,10_ + 0.39940438890134444 z_5,11_ + 0.5032522875525414 z_5,12_ - 1.376442653659676 z_5,13_ - 0.4475468895214296 z_5,14_ + 1.6451387984087424 z_5,15_ + 0.7649110640673513 z_5,16_ + 0.6871888808114965 z_5,17_ + 1.2395145267273453 z_5,18_ - 1.5539303821883297 z_5,19_ - 0.635290266131721 z_5,20_ - 0.5023552813136204 z_6,6_ - 0.8014859416375438 z_6,7_ - 2.9211672534702116 z_6,8_ - 1.2766170382637698 z_6,9_ - 2.8179082260579382 z_6,10_ - 1.2420235336555892 z_6,11_ - 0.7496114107287923 z_6,12_ - 0.9517053612191193 z_6,13_ - 0.8377283888024434 z_6,14_ - 0.1955295010031367 z_6,15_ + 1.8318263956723513 z_6,16_ - 0.6253239710006598 z_6,17_ + 0.005110746577477232 z_6,18_ - 0.26795037385086795 z_6,19_ - 1.341649531545412 z_6,20_ - 1.4591184064619103 z_7,7_ + 0.1960075871212379 z_7,8_ - 0.7764066866053922 z_7,9_ - 0.8473648770716273 z_7,10_ - 1.5824164841466846 z_7,11_ - 1.3411818170523517 z_7,12_ + 0.30919424559449715 z_7,13_ - 2.55290770414046 z_7,14_ + 0.569055098005945 z_7,15_ - 0.3357629760469045 z_7,16_ - 2.281511549402247 z_7,17_ - 0.05856527312043036 z_7,18_ - 2.138105278709604 z_7,19_ - 1.707690658865809 z_7,20_ - 2.049159890169123 z_8,8_ - 1.7162767041937181 z_8,9_ - 0.026093927352449864 z_8,10_ + 0.14188366967896737 z_8,11_ - 3.042317293038217 z_8,12_ + 0.15374980195727705 z_8,13_ - 0.45710678118654746 z_8,14_ - 1.2790622698806087 z_8,15_ - 1.606797181058933 z_8,16_ - 0.45158770817240745 z_8,17_ - 0.5795994781324588 z_8,18_ - 2.0161308776828735 z_8,19_ - 3.82867074599221 z_8,20_ + 1.8253986741533255 z_9,9_ - 3.3994318128950076 z_9,10_ + 1.4137183400472297 z_9,11_ - 3.12934284297651 z_9,12_ - 0.15910364486146567 z_9,13_ + 0.20710678118654746 z_9,14_ + 1.2167448423683154 z_9,15_ + 0.6451620422751936 z_9,16_ - 2.630140840414079 z_9,17_ - 0.6914460334151832 z_9,18_ + 0.7768847961381229 z_9,19_ - 0.967634754806358 z_9,20_ + 0.7649460253523563 z_10,10_ + 0.37068111462341946 z_10,11_ + 4.23876137816114 z_10,12_ - 0.013919290547647234 z_10,13_ - 0.9873074631177072 z_10,14_ + 0.7507907798190301 z_10,15_ + 1.0635146251434149 z_10,16_ - 0.2287429058380362 z_10,17_ - 0.01958802099404 z_10,18_ - 1.2524100594040903 z_10,19_ - 2.1173439339624514 z_10,20_ - 1.958472639488656 z_11,11_ - 2.1257376914636783 z_11,12_ + 0.371241966875709 z_11,13_ + 1.1652104725127248 z_11,14_ - 0.4371955682524229 z_11,15_ + 0.5456782954531465 z_11,16_ - 1.4316804037985635 z_11,17_ + 0.941402760408454 z_11,18_ - 0.42778781651304637 z_11,19_ - 2.5402874839709555 z_11,20_ - 1.382794538706558 z_12,12_ - 0.13925396523973144 z_12,13_ - 2.3937807040528103 z_12,14_ + 1.105965976515513 z_12,15_ + 2.136923564574287 z_12,16_ + 2.24298799200323 z_12,17_ - 0.2049508845439056 z_12,18_ + 0.8828847768972032 z_12,19_ - 2.0496819355985725 z_12,20_ - 0.7098712768350068 z_13,13_ - 0.992039805089896 z_13,14_ - 0.6358203914785703 z_13,15_ + 2.058974512225287 z_13,16_ - 1.3934363162374328 z_13,17_ - 2.2608684340599106 z_13,18_ + 0.6764226854542019 z_13,19_ - 2.9675031270629715 z_13,20_ - 1.1368583926191573 z_14,14_ - 0.7837988513043079 z_14,15_ - 1.6242394932063202 z_14,16_ - 1.6252034215428899 z_14,17_ - 0.9881577093563825 z_14,18_ - 1.738655905815801 z_14,19_ - 0.5569575991742295 z_14,20_ - 1.7111773639452343 z_15,15_ - 1.6916995993194472 z_15,16_ - 1.1626354445042928 z_15,17_ + 0.9989793237435958 z_15,18_ + 0.9740664412698747 z_15,19_ - 0.33707729442123324 z_15,20_ + 1.8113339389755025 z_16,16_ - 0.7315526483433966 z_16,17_ - 0.7380684593393125 z_16,18_ + 0.45927840889519356 z_16,19_ + 0.14304633332067584 z_16,20_ - 3.711011342881092 z_17,17_ + 0.09424051960160462 z_17,18_ + 1.57807649798667 z_17,19_ + 0.49273802778684783 z_17,20_ - 2.1330523299522524 z_18,18_ - 2.264061604387732 z_18,19_ + 0.4323979577282372 z_18,20_ - 0.5635624457217965 z_19,19_ - 0.8030427378511711 z_19,20_ + 0.7030117505056768 z_20,20_ - 0.5 z_2,1_ - 0.5 z_3,1_ - 0.5 z_4,1_ - 0.5 z_5,1_ - 0.5 z_6,1_ - 0.5 z_7,1_ - 0.5 z_8,1_ - 0.5 z_9,1_ - 0.5 z_10,1_ - 0.5 z_11,1_ - 0.5 z_12,1_ - 0.5 z_13,1_ - 0.5 z_14,1_ - 0.5 z_15,1_ - 0.5 z_16,1_ - 0.5 z_17,1_ - 0.5 z_18,1_ - 0.5 z_19,1_ - 0.5 z_20,1_ - 0.5 z_3,2_ - 0.5 z_4,2_ - 0.5 z_5,2_ - 0.5 z_6,2_ - 0.5 z_7,2_ - 0.5 z_8,2_ - 0.5 z_9,2_ - 0.5 z_10,2_ - 0.5 z_11,2_ - 0.5 z_12,2_ - 0.5 z_13,2_ - 0.5 z_14,2_ - 0.5 z_15,2_ - 0.5 z_16,2_ - 0.5 z_17,2_ - 0.5 z_18,2_ - 0.5 z_19,2_ - 0.5 z_20,2_ - 0.5 z_4,3_ - 0.5 z_5,3_ - 0.5 z_6,3_ - 0.5 z_7,3_ - 0.5 z_8,3_ - 0.5 z_9,3_ - 0.5 z_10,3_ - 0.5 z_11,3_ - 0.5 z_12,3_ - 0.5 z_13,3_ - 0.5 z_14,3_ - 0.5 z_15,3_ - 0.5 z_16,3_ - 0.5 z_17,3_ - 0.5 z_18,3_ - 0.5 z_19,3_ - 0.5 z_20,3_ - 0.5 z_5,4_ - 0.5 z_6,4_ - 0.5 z_7,4_ - 0.5 z_8,4_ - 0.5 z_9,4_ - 0.5 z_10,4_ - 0.5 z_11,4_ - 0.5 z_12,4_ - 0.5 z_13,4_ - 0.5 z_14,4_ - 0.5 z_15,4_ - 0.5 z_16,4_ - 0.5 z_17,4_ - 0.5 z_18,4_ - 0.5 z_19,4_ - 0.5 z_20,4_ - 0.5 z_6,5_ - 0.5 z_7,5_ - 0.5 z_8,5_ - 0.5 z_9,5_ - 0.5 z_10,5_ - 0.5 z_11,5_ - 0.5 z_12,5_ - 0.5 z_13,5_ - 0.5 z_14,5_ - 0.5 z_15,5_ - 0.5 z_16,5_ - 0.5 z_17,5_ - 0.5 z_18,5_ - 0.5 z_19,5_ - 0.5 z_20,5_ - 0.5 z_7,6_ - 0.5 z_8,6_ - 0.5 z_9,6_ - 0.5 z_10,6_ - 0.5 z_11,6_ - 0.5 z_12,6_ - 0.5 z_13,6_ - 0.5 z_14,6_ - 0.5 z_15,6_ - 0.5 z_16,6_ - 0.5 z_17,6_ - 0.5 z_18,6_ - 0.5 z_19,6_ - 0.5 z_20,6_ - 0.5 z_8,7_ - 0.5 z_9,7_ - 0.5 z_10,7_ - 0.5 z_11,7_ - 0.5 z_12,7_ - 0.5 z_13,7_ - 0.5 z_14,7_ - 0.5 z_15,7_ - 0.5 z_16,7_ - 0.5 z_17,7_ - 0.5 z_18,7_ - 0.5 z_19,7_ - 0.5 z_20,7_ - 0.5 z_9,8_ - 0.5 z_10,8_ - 0.5 z_11,8_ - 0.5 z_12,8_ - 0.5 z_13,8_ - 0.5 z_14,8_ - 0.5 z_15,8_ - 0.5 z_16,8_ - 0.5 z_17,8_ - 0.5 z_18,8_ - 0.5 z_19,8_ - 0.5 z_20,8_ - 0.5 z_10,9_ - 0.5 z_11,9_ - 0.5 z_12,9_ - 0.5 z_13,9_ - 0.5 z_14,9_ - 0.5 z_15,9_ - 0.5 z_16,9_ - 0.5 z_17,9_ - 0.5 z_18,9_ - 0.5 z_19,9_ - 0.5 z_20,9_ - 0.5 z_11,10_ - 0.5 z_12,10_ - 0.5 z_13,10_ - 0.5 z_14,10_ - 0.5 z_15,10_ - 0.5 z_16,10_ - 0.5 z_17,10_ - 0.5 z_18,10_ - 0.5 z_19,10_ - 0.5 z_20,10_ - 0.5 z_12,11_ - 0.5 z_13,11_ - 0.5 z_14,11_ - 0.5 z_15,11_ - 0.5 z_16,11_ - 0.5 z_17,11_ - 0.5 z_18,11_ - 0.5 z_19,11_ - 0.5 z_20,11_ - 0.5 z_13,12_ - 0.5 z_14,12_ - 0.5 z_15,12_ - 0.5 z_16,12_ - 0.5 z_17,12_ - 0.5 z_18,12_ - 0.5 z_19,12_ - 0.5 z_20,12_ - 0.5 z_14,13_ - 0.5 z_15,13_ - 0.5 z_16,13_ - 0.5 z_17,13_ - 0.5 z_18,13_ - 0.5 z_19,13_ - 0.5 z_20,13_ - 0.5 z_15,14_ - 0.5 z_16,14_ - 0.5 z_17,14_ - 0.5 z_18,14_ - 0.5 z_19,14_ - 0.5 z_20,14_ - 0.5 z_16,15_ - 0.5 z_17,15_ - 0.5 z_18,15_ - 0.5 z_19,15_ - 0.5 z_20,15_ - 0.5 z_17,16_ - 0.5 z_18,16_ - 0.5 z_19,16_ - 0.5 z_20,16_ - 0.5 z_18,17_ - 0.5 z_19,17_ - 0.5 z_20,17_ - 0.5 z_19,18_ - 0.5 z_20,18_ - 0.5 z_20,19_
subject to
c1_1: 1 z_1,1_ + 1 z_1,2_ + 1 z_1,3_ + 1 z_1,4_ + 1 z_1,5_ + 1 z_1,6_ + 1 z_1,7_ + 1 z_1,8_ + 1 z_1,9_ + 1 z_1,10_ + 1 z_1,11_ + 1 z_1,12_ + 1 z_1,13_ + 1 z_1,14_ + 1 z_1,15_ + 1 z_1,16_ + 1 z_1,17_ + 1 z_1,18_ + 1 z_1,19_ + 1 z_1,20_ <= 1
c2_1: 1 z_2,1_ + 1 z_2,2_ + 1 z_2,3_ + 1 z_2,4_ + 1 z_2,5_ + 1 z_2,6_ + 1 z_2,7_ + 1 z_2,8_ + 1 z_2,9_ + 1 z_2,10_ + 1 z_2,11_ + 1 z_2,12_ + 1 z_2,13_ + 1 z_2,14_ + 1 z_2,15_ + 1 z_2,16_ + 1 z_2,17_ + 1 z_2,18_ + 1 z_2,19_ + 1 z_2,20_ <= 1
c3_1: 1 z_3,1_ + 1 z_3,2_ + 1 z_3,3_ + 1 z_3,4_ + 1 z_3,5_ + 1 z_3,6_ + 1 z_3,7_ + 1 z_3,8_ + 1 z_3,9_ + 1 z_3,10_ + 1 z_3,11_ + 1 z_3,12_ + 1 z_3,13_ + 1 z_3,14_ + 1 z_3,15_ + 1 z_3,16_ + 1 z_3,17_ + 1 z_3,18_ + 1 z_3,19_ + 1 z_3,20_ <= 1
c4_1: 1 z_4,1_ + 1 z_4,2_ + 1 z_4,3_ + 1 z_4,4_ + 1 z_4,5_ + 1 z_4,6_ + 1 z_4,7_ + 1 z_4,8_ + 1 z_4,9_ + 1 z_4,10_ + 1 z_4,11_ + 1 z_4,12_ + 1 z_4,13_ + 1 z_4,14_ + 1 z_4,15_ + 1 z_4,16_ + 1 z_4,17_ + 1 z_4,18_ + 1 z_4,19_ + 1 z_4,20_ <= 1
c5_1: 1 z_5,1_ + 1 z_5,2_ + 1 z_5,3_ + 1 z_5,4_ + 1 z_5,5_ + 1 z_5,6_ + 1 z_5,7_ + 1 z_5,8_ + 1 z_5,9_ + 1 z_5,10_ + 1 z_5,11_ + 1 z_5,12_ + 1 z_5,13_ + 1 z_5,14_ + 1 z_5,15_ + 1 z_5,16_ + 1 z_5,17_ + 1 z_5,18_ + 1 z_5,19_ + 1 z_5,20_ <= 1
c6_1: 1 z_6,1_ + 1 z_6,2_ + 1 z_6,3_ + 1 z_6,4_ + 1 z_6,5_ + 1 z_6,6_ + 1 z_6,7_ + 1 z_6,8_ + 1 z_6,9_ + 1 z_6,10_ + 1 z_6,11_ + 1 z_6,12_ + 1 z_6,13_ + 1 z_6,14_ + 1 z_6,15_ + 1 z_6,16_ + 1 z_6,17_ + 1 z_6,18_ + 1 z_6,19_ + 1 z_6,20_ <= 1
c7_1: 1 z_7,1_ + 1 z_7,2_ + 1 z_7,3_ + 1 z_7,4_ + 1 z_7,5_ + 1 z_7,6_ + 1 z_7,7_ + 1 z_7,8_ + 1 z_7,9_ + 1 z_7,10_ + 1 z_7,11_ + 1 z_7,12_ + 1 z_7,13_ + 1 z_7,14_ + 1 z_7,15_ + 1 z_7,16_ + 1 z_7,17_ + 1 z_7,18_ + 1 z_7,19_ + 1 z_7,20_ <= 1
c8_1: 1 z_8,1_ + 1 z_8,2_ + 1 z_8,3_ + 1 z_8,4_ + 1 z_8,5_ + 1 z_8,6_ + 1 z_8,7_ + 1 z_8,8_ + 1 z_8,9_ + 1 z_8,10_ + 1 z_8,11_ + 1 z_8,12_ + 1 z_8,13_ + 1 z_8,14_ + 1 z_8,15_ + 1 z_8,16_ + 1 z_8,17_ + 1 z_8,18_ + 1 z_8,19_ + 1 z_8,20_ <= 1
c9_1: 1 z_9,1_ + 1 z_9,2_ + 1 z_9,3_ + 1 z_9,4_ + 1 z_9,5_ + 1 z_9,6_ + 1 z_9,7_ + 1 z_9,8_ + 1 z_9,9_ + 1 z_9,10_ + 1 z_9,11_ + 1 z_9,12_ + 1 z_9,13_ + 1 z_9,14_ + 1 z_9,15_ + 1 z_9,16_ + 1 z_9,17_ + 1 z_9,18_ + 1 z_9,19_ + 1 z_9,20_ <= 1
c10_1: 1 z_10,1_ + 1 z_10,2_ + 1 z_10,3_ + 1 z_10,4_ + 1 z_10,5_ + 1 z_10,6_ + 1 z_10,7_ + 1 z_10,8_ + 1 z_10,9_ + 1 z_10,10_ + 1 z_10,11_ + 1 z_10,12_ + 1 z_10,13_ + 1 z_10,14_ + 1 z_10,15_ + 1 z_10,16_ + 1 z_10,17_ + 1 z_10,18_ + 1 z_10,19_ + 1 z_10,20_ <= 1
c11_1: 1 z_11,1_ + 1 z_11,2_ + 1 z_11,3_ + 1 z_11,4_ + 1 z_11,5_ + 1 z_11,6_ + 1 z_11,7_ + 1 z_11,8_ + 1 z_11,9_ + 1 z_11,10_ + 1 z_11,11_ + 1 z_11,12_ + 1 z_11,13_ + 1 z_11,14_ + 1 z_11,15_ + 1 z_11,16_ + 1 z_11,17_ + 1 z_11,18_ + 1 z_11,19_ + 1 z_11,20_ <= 1
c12_1: 1 z_12,1_ + 1 z_12,2_ + 1 z_12,3_ + 1 z_12,4_ + 1 z_12,5_ + 1 z_12,6_ + 1 z_12,7_ + 1 z_12,8_ + 1 z_12,9_ + 1 z_12,10_ + 1 z_12,11_ + 1 z_12,12_ + 1 z_12,13_ + 1 z_12,14_ + 1 z_12,15_ + 1 z_12,16_ + 1 z_12,17_ + 1 z_12,18_ + 1 z_12,19_ + 1 z_12,20_ <= 1
c13_1: 1 z_13,1_ + 1 z_13,2_ + 1 z_13,3_ + 1 z_13,4_ + 1 z_13,5_ + 1 z_13,6_ + 1 z_13,7_ + 1 z_13,8_ + 1 z_13,9_ + 1 z_13,10_ + 1 z_13,11_ + 1 z_13,12_ + 1 z_13,13_ + 1 z_13,14_ + 1 z_13,15_ + 1 z_13,16_ + 1 z_13,17_ + 1 z_13,18_ + 1 z_13,19_ + 1 z_13,20_ <= 1
c14_1: 1 z_14,1_ + 1 z_14,2_ + 1 z_14,3_ + 1 z_14,4_ + 1 z_14,5_ + 1 z_14,6_ + 1 z_14,7_ + 1 z_14,8_ + 1 z_14,9_ + 1 z_14,10_ + 1 z_14,11_ + 1 z_14,12_ + 1 z_14,13_ + 1 z_14,14_ + 1 z_14,15_ + 1 z_14,16_ + 1 z_14,17_ + 1 z_14,18_ + 1 z_14,19_ + 1 z_14,20_ <= 1
c15_1: 1 z_15,1_ + 1 z_15,2_ + 1 z_15,3_ + 1 z_15,4_ + 1 z_15,5_ + 1 z_15,6_ + 1 z_15,7_ + 1 z_15,8_ + 1 z_15,9_ + 1 z_15,10_ + 1 z_15,11_ + 1 z_15,12_ + 1 z_15,13_ + 1 z_15,14_ + 1 z_15,15_ + 1 z_15,16_ + 1 z_15,17_ + 1 z_15,18_ + 1 z_15,19_ + 1 z_15,20_ <= 1
c16_1: 1 z_16,1_ + 1 z_16,2_ + 1 z_16,3_ + 1 z_16,4_ + 1 z_16,5_ + 1 z_16,6_ + 1 z_16,7_ + 1 z_16,8_ + 1 z_16,9_ + 1 z_16,10_ + 1 z_16,11_ + 1 z_16,12_ + 1 z_16,13_ + 1 z_16,14_ + 1 z_16,15_ + 1 z_16,16_ + 1 z_16,17_ + 1 z_16,18_ + 1 z_16,19_ + 1 z_16,20_ <= 1
c17_1: 1 z_17,1_ + 1 z_17,2_ + 1 z_17,3_ + 1 z_17,4_ + 1 z_17,5_ + 1 z_17,6_ + 1 z_17,7_ + 1 z_17,8_ + 1 z_17,9_ + 1 z_17,10_ + 1 z_17,11_ + 1 z_17,12_ + 1 z_17,13_ + 1 z_17,14_ + 1 z_17,15_ + 1 z_17,16_ + 1 z_17,17_ + 1 z_17,18_ + 1 z_17,19_ + 1 z_17,20_ <= 1
c18_1: 1 z_18,1_ + 1 z_18,2_ + 1 z_18,3_ + 1 z_18,4_ + 1 z_18,5_ + 1 z_18,6_ + 1 z_18,7_ + 1 z_18,8_ + 1 z_18,9_ + 1 z_18,10_ + 1 z_18,11_ + 1 z_18,12_ + 1 z_18,13_ + 1 z_18,14_ + 1 z_18,15_ + 1 z_18,16_ + 1 z_18,17_ + 1 z_18,18_ + 1 z_18,19_ + 1 z_18,20_ <= 1
c19_1: 1 z_19,1_ + 1 z_19,2_ + 1 z_19,3_ + 1 z_19,4_ + 1 z_19,5_ + 1 z_19,6_ + 1 z_19,7_ + 1 z_19,8_ + 1 z_19,9_ + 1 z_19,10_ + 1 z_19,11_ + 1 z_19,12_ + 1 z_19,13_ + 1 z_19,14_ + 1 z_19,15_ + 1 z_19,16_ + 1 z_19,17_ + 1 z_19,18_ + 1 z_19,19_ + 1 z_19,20_ <= 1
c20_1: 1 z_20,1_ + 1 z_20,2_ + 1 z_20,3_ + 1 z_20,4_ + 1 z_20,5_ + 1 z_20,6_ + 1 z_20,7_ + 1 z_20,8_ + 1 z_20,9_ + 1 z_20,10_ + 1 z_20,11_ + 1 z_20,12_ + 1 z_20,13_ + 1 z_20,14_ + 1 z_20,15_ + 1 z_20,16_ + 1 z_20,17_ + 1 z_20,18_ + 1 z_20,19_ + 1 z_20,20_ <= 1
c21_1: 1 z_1,1_ + 1 z_2,1_ + 1 z_3,1_ + 1 z_4,1_ + 1 z_5,1_ + 1 z_6,1_ + 1 z_7,1_ + 1 z_8,1_ + 1 z_9,1_ + 1 z_10,1_ + 1 z_11,1_ + 1 z_12,1_ + 1 z_13,1_ + 1 z_14,1_ + 1 z_15,1_ + 1 z_16,1_ + 1 z_17,1_ + 1 z_18,1_ + 1 z_19,1_ + 1 z_20,1_ <= 1
c22_1: 1 z_1,2_ + 1 z_2,2_ + 1 z_3,2_ + 1 z_4,2_ + 1 z_5,2_ + 1 z_6,2_ + 1 z_7,2_ + 1 z_8,2_ + 1 z_9,2_ + 1 z_10,2_ + 1 z_11,2_ + 1 z_12,2_ + 1 z_13,2_ + 1 z_14,2_ + 1 z_15,2_ + 1 z_16,2_ + 1 z_17,2_ + 1 z_18,2_ + 1 z_19,2_ + 1 z_20,2_ <= 1
c23_1: 1 z_1,3_ + 1 z_2,3_ + 1 z_3,3_ + 1 z_4,3_ + 1 z_5,3_ + 1 z_6,3_ + 1 z_7,3_ + 1 z_8,3_ + 1 z_9,3_ + 1 z_10,3_ + 1 z_11,3_ + 1 z_12,3_ + 1 z_13,3_ + 1 z_14,3_ + 1 z_15,3_ + 1 z_16,3_ + 1 z_17,3_ + 1 z_18,3_ + 1 z_19,3_ + 1 z_20,3_ <= 1
c24_1: 1 z_1,4_ + 1 z_2,4_ + 1 z_3,4_ + 1 z_4,4_ + 1 z_5,4_ + 1 z_6,4_ + 1 z_7,4_ + 1 z_8,4_ + 1 z_9,4_ + 1 z_10,4_ + 1 z_11,4_ + 1 z_12,4_ + 1 z_13,4_ + 1 z_14,4_ + 1 z_15,4_ + 1 z_16,4_ + 1 z_17,4_ + 1 z_18,4_ + 1 z_19,4_ + 1 z_20,4_ <= 1
c25_1: 1 z_1,5_ + 1 z_2,5_ + 1 z_3,5_ + 1 z_4,5_ + 1 z_5,5_ + 1 z_6,5_ + 1 z_7,5_ + 1 z_8,5_ + 1 z_9,5_ + 1 z_10,5_ + 1 z_11,5_ + 1 z_12,5_ + 1 z_13,5_ + 1 z_14,5_ + 1 z_15,5_ + 1 z_16,5_ + 1 z_17,5_ + 1 z_18,5_ + 1 z_19,5_ + 1 z_20,5_ <= 1
c26_1: 1 z_1,6_ + 1 z_2,6_ + 1 z_3,6_ + 1 z_4,6_ + 1 z_5,6_ + 1 z_6,6_ + 1 z_7,6_ + 1 z_8,6_ + 1 z_9,6_ + 1 z_10,6_ + 1 z_11,6_ + 1 z_12,6_ + 1 z_13,6_ + 1 z_14,6_ + 1 z_15,6_ + 1 z_16,6_ + 1 z_17,6_ + 1 z_18,6_ + 1 z_19,6_ + 1 z_20,6_ <= 1
c27_1: 1 z_1,7_ + 1 z_2,7_ + 1 z_3,7_ + 1 z_4,7_ + 1 z_5,7_ + 1 z_6,7_ + 1 z_7,7_ + 1 z_8,7_ + 1 z_9,7_ + 1 z_10,7_ + 1 z_11,7_ + 1 z_12,7_ + 1 z_13,7_ + 1 z_14,7_ + 1 z_15,7_ + 1 z_16,7_ + 1 z_17,7_ + 1 z_18,7_ + 1 z_19,7_ + 1 z_20,7_ <= 1
c28_1: 1 z_1,8_ + 1 z_2,8_ + 1 z_3,8_ + 1 z_4,8_ + 1 z_5,8_ + 1 z_6,8_ + 1 z_7,8_ + 1 z_8,8_ + 1 z_9,8_ + 1 z_10,8_ + 1 z_11,8_ + 1 z_12,8_ + 1 z_13,8_ + 1 z_14,8_ + 1 z_15,8_ + 1 z_16,8_ + 1 z_17,8_ + 1 z_18,8_ + 1 z_19,8_ + 1 z_20,8_ <= 1
c29_1: 1 z_1,9_ + 1 z_2,9_ + 1 z_3,9_ + 1 z_4,9_ + 1 z_5,9_ + 1 z_6,9_ + 1 z_7,9_ + 1 z_8,9_ + 1 z_9,9_ + 1 z_10,9_ + 1 z_11,9_ + 1 z_12,9_ + 1 z_13,9_ + 1 z_14,9_ + 1 z_15,9_ + 1 z_16,9_ + 1 z_17,9_ + 1 z_18,9_ + 1 z_19,9_ + 1 z_20,9_ <= 1
c30_1: 1 z_1,10_ + 1 z_2,10_ + 1 z_3,10_ + 1 z_4,10_ + 1 z_5,10_ + 1 z_6,10_ + 1 z_7,10_ + 1 z_8,10_ + 1 z_9,10_ + 1 z_10,10_ + 1 z_11,10_ + 1 z_12,10_ + 1 z_13,10_ + 1 z_14,10_ + 1 z_15,10_ + 1 z_16,10_ + 1 z_17,10_ + 1 z_18,10_ + 1 z_19,10_ + 1 z_20,10_ <= 1
c31_1: 1 z_1,11_ + 1 z_2,11_ + 1 z_3,11_ + 1 z_4,11_ + 1 z_5,11_ + 1 z_6,11_ + 1 z_7,11_ + 1 z_8,11_ + 1 z_9,11_ + 1 z_10,11_ + 1 z_11,11_ + 1 z_12,11_ + 1 z_13,11_ + 1 z_14,11_ + 1 z_15,11_ + 1 z_16,11_ + 1 z_17,11_ + 1 z_18,11_ + 1 z_19,11_ + 1 z_20,11_ <= 1
c32_1: 1 z_1,12_ + 1 z_2,12_ + 1 z_3,12_ + 1 z_4,12_ + 1 z_5,12_ + 1 z_6,12_ + 1 z_7,12_ + 1 z_8,12_ + 1 z_9,12_ + 1 z_10,12_ + 1 z_11,12_ + 1 z_12,12_ + 1 z_13,12_ + 1 z_14,12_ + 1 z_15,12_ + 1 z_16,12_ + 1 z_17,12_ + 1 z_18,12_ + 1 z_19,12_ + 1 z_20,12_ <= 1
c33_1: 1 z_1,13_ + 1 z_2,13_ + 1 z_3,13_ + 1 z_4,13_ + 1 z_5,13_ + 1 z_6,13_ + 1 z_7,13_ + 1 z_8,13_ + 1 z_9,13_ + 1 z_10,13_ + 1 z_11,13_ + 1 z_12,13_ + 1 z_13,13_ + 1 z_14,13_ + 1 z_15,13_ + 1 z_16,13_ + 1 z_17,13_ + 1 z_18,13_ + 1 z_19,13_ + 1 z_20,13_ <= 1
c34_1: 1 z_1,14_ + 1 z_2,14_ + 1 z_3,14_ + 1 z_4,14_ + 1 z_5,14_ + 1 z_6,14_ + 1 z_7,14_ + 1 z_8,14_ + 1 z_9,14_ + 1 z_10,14_ + 1 z_11,14_ + 1 z_12,14_ + 1 z_13,14_ + 1 z_14,14_ + 1 z_15,14_ + 1 z_16,14_ + 1 z_17,14_ + 1 z_18,14_ + 1 z_19,14_ + 1 z_20,14_ <= 1
c35_1: 1 z_1,15_ + 1 z_2,15_ + 1 z_3,15_ + 1 z_4,15_ + 1 z_5,15_ + 1 z_6,15_ + 1 z_7,15_ + 1 z_8,15_ + 1 z_9,15_ + 1 z_10,15_ + 1 z_11,15_ + 1 z_12,15_ + 1 z_13,15_ + 1 z_14,15_ + 1 z_15,15_ + 1 z_16,15_ + 1 z_17,15_ + 1 z_18,15_ + 1 z_19,15_ + 1 z_20,15_ <= 1
c36_1: 1 z_1,16_ + 1 z_2,16_ + 1 z_3,16_ + 1 z_4,16_ + 1 z_5,16_ + 1 z_6,16_ + 1 z_7,16_ + 1 z_8,16_ + 1 z_9,16_ + 1 z_10,16_ + 1 z_11,16_ + 1 z_12,16_ + 1 z_13,16_ + 1 z_14,16_ + 1 z_15,16_ + 1 z_16,16_ + 1 z_17,16_ + 1 z_18,16_ + 1 z_19,16_ + 1 z_20,16_ <= 1
c37_1: 1 z_1,17_ + 1 z_2,17_ + 1 z_3,17_ + 1 z_4,17_ + 1 z_5,17_ + 1 z_6,17_ + 1 z_7,17_ + 1 z_8,17_ + 1 z_9,17_ + 1 z_10,17_ + 1 z_11,17_ + 1 z_12,17_ + 1 z_13,17_ + 1 z_14,17_ + 1 z_15,17_ + 1 z_16,17_ + 1 z_17,17_ + 1 z_18,17_ + 1 z_19,17_ + 1 z_20,17_ <= 1
c38_1: 1 z_1,18_ + 1 z_2,18_ + 1 z_3,18_ + 1 z_4,18_ + 1 z_5,18_ + 1 z_6,18_ + 1 z_7,18_ + 1 z_8,18_ + 1 z_9,18_ + 1 z_10,18_ + 1 z_11,18_ + 1 z_12,18_ + 1 z_13,18_ + 1 z_14,18_ + 1 z_15,18_ + 1 z_16,18_ + 1 z_17,18_ + 1 z_18,18_ + 1 z_19,18_ + 1 z_20,18_ <= 1
c39_1: 1 z_1,19_ + 1 z_2,19_ + 1 z_3,19_ + 1 z_4,19_ + 1 z_5,19_ + 1 z_6,19_ + 1 z_7,19_ + 1 z_8,19_ + 1 z_9,19_ + 1 z_10,19_ + 1 z_11,19_ + 1 z_12,19_ + 1 z_13,19_ + 1 z_14,19_ + 1 z_15,19_ + 1 z_16,19_ + 1 z_17,19_ + 1 z_18,19_ + 1 z_19,19_ + 1 z_20,19_ <= 1
c40_1: 1 z_1,20_ + 1 z_2,20_ + 1 z_3,20_ + 1 z_4,20_ + 1 z_5,20_ + 1 z_6,20_ + 1 z_7,20_ + 1 z_8,20_ + 1 z_9,20_ + 1 z_10,20_ + 1 z_11,20_ + 1 z_12,20_ + 1 z_13,20_ + 1 z_14,20_ + 1 z_15,20_ + 1 z_16,20_ + 1 z_17,20_ + 1 z_18,20_ + 1 z_19,20_ + 1 z_20,20_ <= 1
c1:  = 0
c2: -1 z_2,1_ + 1 z_1,2_ = 0
c3: -1 z_3,1_ + 1 z_1,3_ = 0
c4: -1 z_4,1_ + 1 z_1,4_ = 0
c5: -1 z_5,1_ + 1 z_1,5_ = 0
c6: -1 z_6,1_ + 1 z_1,6_ = 0
c7: -1 z_7,1_ + 1 z_1,7_ = 0
c8: -1 z_8,1_ + 1 z_1,8_ = 0
c9: -1 z_9,1_ + 1 z_1,9_ = 0
c10: -1 z_10,1_ + 1 z_1,10_ = 0
c11: -1 z_11,1_ + 1 z_1,11_ = 0
c12: -1 z_12,1_ + 1 z_1,12_ = 0
c13: -1 z_13,1_ + 1 z_1,13_ = 0
c14: -1 z_14,1_ + 1 z_1,14_ = 0
c15: -1 z_15,1_ + 1 z_1,15_ = 0
c16: -1 z_16,1_ + 1 z_1,16_ = 0
c17: -1 z_17,1_ + 1 z_1,17_ = 0
c18: -1 z_18,1_ + 1 z_1,18_ = 0
c19: -1 z_19,1_ + 1 z_1,19_ = 0
c20: -1 z_20,1_ + 1 z_1,20_ = 0
c21:  = 0
c22: -1 z_3,2_ + 1 z_2,3_ = 0
c23: -1 z_4,2_ + 1 z_2,4_ = 0
c24: -1 z_5,2_ + 1 z_2,5_ = 0
c25: -1 z_6,2_ + 1 z_2,6_ = 0
c26: -1 z_7,2_ + 1 z_2,7_ = 0
c27: -1 z_8,2_ + 1 z_2,8_ = 0
c28: -1 z_9,2_ + 1 z_2,9_ = 0
c29: -1 z_10,2_ + 1 z_2,10_ = 0
c30: -1 z_11,2_ + 1 z_2,11_ = 0
c31: -1 z_12,2_ + 1 z_2,12_ = 0
c32: -1 z_13,2_ + 1 z_2,13_ = 0
c33: -1 z_14,2_ + 1 z_2,14_ = 0
c34: -1 z_15,2_ + 1 z_2,15_ = 0
c35: -1 z_16,2_ + 1 z_2,16_ = 0
c36: -1 z_17,2_ + 1 z_2,17_ = 0
c37: -1 z_18,2_ + 1 z_2,18_ = 0
c38: -1 z_19,2_ + 1 z_2,19_ = 0
c39: -1 z_20,2_ + 1 z_2,20_ = 0
c40:  = 0
c41: -1 z_4,3_ + 1 z_3,4_ = 0
c42: -1 z_5,3_ + 1 z_3,5_ = 0
c43: -1 z_6,3_ + 1 z_3,6_ = 0
c44: -1 z_7,3_ + 1 z_3,7_ = 0
c45: -1 z_8,3_ + 1 z_3,8_ = 0
c46: -1 z_9,3_ + 1 z_3,9_ = 0
c47: -1 z_10,3_ + 1 z_3,10_ = 0
c48: -1 z_11,3_ + 1 z_3,11_ = 0
c49: -1 z_12,3_ + 1 z_3,12_ = 0
c50: -1 z_13,3_ + 1 z_3,13_ = 0
c51: -1 z_14,3_ + 1 z_3,14_ = 0
c52: -1 z_15,3_ + 1 z_3,15_ = 0
c53: -1 z_16,3_ + 1 z_3,16_ = 0
c54: -1 z_17,3_ + 1 z_3,17_ = 0
c55: -1 z_18,3_ + 1 z_3,18_ = 0
c56: -1 z_19,3_ + 1 z_3,19_ = 0
c57: -1 z_20,3_ + 1 z_3,20_ = 0
c58:  = 0
c59: -1 z_5,4_ + 1 z_4,5_ = 0
c60: -1 z_6,4_ + 1 z_4,6_ = 0
c61: -1 z_7,4_ + 1 z_4,7_ = 0
c62: -1 z_8,4_ + 1 z_4,8_ = 0
c63: -1 z_9,4_ + 1 z_4,9_ = 0
c64: -1 z_10,4_ + 1 z_4,10_ = 0
c65: -1 z_11,4_ + 1 z_4,11_ = 0
c66: -1 z_12,4_ + 1 z_4,12_ = 0
c67: -1 z_13,4_ + 1 z_4,13_ = 0
c68: -1 z_14,4_ + 1 z_4,14_ = 0
c69: -1 z_15,4_ + 1 z_4,15_ = 0
c70: -1 z_16,4_ + 1 z_4,16_ = 0
c71: -1 z_17,4_ + 1 z_4,17_ = 0
c72: -1 z_18,4_ + 1 z_4,18_ = 0
c73: -1 z_19,4_ + 1 z_4,19_ = 0
c74: -1 z_20,4_ + 1 z_4,20_ = 0
c75:  = 0
c76: -1 z_6,5_ + 1 z_5,6_ = 0
c77: -1 z_7,5_ + 1 z_5,7_ = 0
c78: -1 z_8,5_ + 1 z_5,8_ = 0
c79: -1 z_9,5_ + 1 z_5,9_ = 0
c80: -1 z_10,5_ + 1 z_5,10_ = 0
c81: -1 z_11,5_ + 1 z_5,11_ = 0
c82: -1 z_12,5_ + 1 z_5,12_ = 0
c83: -1 z_13,5_ + 1 z_5,13_ = 0
c84: -1 z_14,5_ + 1 z_5,14_ = 0
c85: -1 z_15,5_ + 1 z_5,15_ = 0
c86: -1 z_16,5_ + 1 z_5,16_ = 0
c87: -1 z_17,5_ + 1 z_5,17_ = 0
c88: -1 z_18,5_ + 1 z_5,18_ = 0
c89: -1 z_19,5_ + 1 z_5,19_ = 0
c90: -1 z_20,5_ + 1 z_5,20_ = 0
c91:  = 0
c92: -1 z_7,6_ + 1 z_6,7_ = 0
c93: -1 z_8,6_ + 1 z_6,8_ = 0
c94: -1 z_9,6_ + 1 z_6,9_ = 0
c95: -1 z_10,6_ + 1 z_6,10_ = 0
c96: -1 z_11,6_ + 1 z_6,11_ = 0
c97: -1 z_12,6_ + 1 z_6,12_ = 0
c98: -1 z_13,6_ + 1 z_6,13_ = 0
c99: -1 z_14,6_ + 1 z_6,14_ = 0
c100: -1 z_15,6_ + 1 z_6,15_ = 0
c101: -1 z_16,6_ + 1 z_6,16_ = 0
c102: -1 z_17,6_ + 1 z_6,17_ = 0
c103: -1 z_18,6_ + 1 z_6,18_ = 0
c104: -1 z_19,6_ + 1 z_6,19_ = 0
c105: -1 z_20,6_ + 1 z_6,20_ = 0
c106:  = 0
c107: -1 z_8,7_ + 1 z_7,8_ = 0
c108: -1 z_9,7_ + 1 z_7,9_ = 0
c109: -1 z_10,7_ + 1 z_7,10_ = 0
c110: -1 z_11,7_ + 1 z_7,11_ = 0
c111: -1 z_12,7_ + 1 z_7,12_ = 0
c112: -1 z_13,7_ + 1 z_7,13_ = 0
c113: -1 z_14,7_ + 1 z_7,14_ = 0
c114: -1 z_15,7_ + 1 z_7,15_ = 0
c115: -1 z_16,7_ + 1 z_7,16_ = 0
c116: -1 z_17,7_ + 1 z_7,17_ = 0
c117: -1 z_18,7_ + 1 z_7,18_ = 0
c118: -1 z_19,7_ + 1 z_7,19_ = 0
c119: -1 z_20,7_ + 1 z_7,20_ = 0
c120:  = 0
c121: -1 z_9,8_ + 1 z_8,9_ = 0
c122: -1 z_10,8_ + 1 z_8,10_ = 0
c123: -1 z_11,8_ + 1 z_8,11_ = 0
c124: -1 z_12,8_ + 1 z_8,12_ = 0
c125: -1 z_13,8_ + 1 z_8,13_ = 0
c126: -1 z_14,8_ + 1 z_8,14_ = 0
c127: -1 z_15,8_ + 1 z_8,15_ = 0
c128: -1 z_16,8_ + 1 z_8,16_ = 0
c129: -1 z_17,8_ + 1 z_8,17_ = 0
c130: -1 z_18,8_ + 1 z_8,18_ = 0
c131: -1 z_19,8_ + 1 z_8,19_ = 0
c132: -1 z_20,8_ + 1 z_8,20_ = 0
c133:  = 0
c134: -1 z_10,9_ + 1 z_9,10_ = 0
c135: -1 z_11,9_ + 1 z_9,11_ = 0
c136: -1 z_12,9_ + 1 z_9,12_ = 0
c137: -1 z_13,9_ + 1 z_9,13_ = 0
c138: -1 z_14,9_ + 1 z_9,14_ = 0
c139: -1 z_15,9_ + 1 z_9,15_ = 0
c140: -1 z_16,9_ + 1 z_9,16_ = 0
c141: -1 z_17,9_ + 1 z_9,17_ = 0
c142: -1 z_18,9_ + 1 z_9,18_ = 0
c143: -1 z_19,9_ + 1 z_9,19_ = 0
c144: -1 z_20,9_ + 1 z_9,20_ = 0
c145:  = 0
c146: -1 z_11,10_ + 1 z_10,11_ = 0
c147: -1 z_12,10_ + 1 z_10,12_ = 0
c148: -1 z_13,10_ + 1 z_10,13_ = 0
c149: -1 z_14,10_ + 1 z_10,14_ = 0
c150: -1 z_15,10_ + 1 z_10,15_ = 0
c151: -1 z_16,10_ + 1 z_10,16_ = 0
c152: -1 z_17,10_ + 1 z_10,17_ = 0
c153: -1 z_18,10_ + 1 z_10,18_ = 0
c154: -1 z_19,10_ + 1 z_10,19_ = 0
c155: -1 z_20,10_ + 1 z_10,20_ = 0
c156:  = 0
c157: -1 z_12,11_ + 1 z_11,12_ = 0
c158: -1 z_13,11_ + 1 z_11,13_ = 0
c159: -1 z_14,11_ + 1 z_11,14_ = 0
c160: -1 z_15,11_ + 1 z_11,15_ = 0
c161: -1 z_16,11_ + 1 z_11,16_ = 0
c162: -1 z_17,11_ + 1 z_11,17_ = 0
c163: -1 z_18,11_ + 1 z_11,18_ = 0
c164: -1 z_19,11_ + 1 z_11,19_ = 0
c165: -1 z_20,11_ + 1 z_11,20_ = 0
c166:  = 0
c167: -1 z_13,12_ + 1 z_12,13_ = 0
c168: -1 z_14,12_ + 1 z_12,14_ = 0
c169: -1 z_15,12_ + 1 z_12,15_ = 0
c170: -1 z_16,12_ + 1 z_12,16_ = 0
c171: -1 z_17,12_ + 1 z_12,17_ = 0
c172: -1 z_18,12_ + 1 z_12,18_ = 0
c173: -1 z_19,12_ + 1 z_12,19_ = 0
c174: -1 z_20,12_ + 1 z_12,20_ = 0
c175:  = 0
c176: -1 z_14,13_ + 1 z_13,14_ = 0
c177: -1 z_15,13_ + 1 z_13,15_ = 0
c178: -1 z_16,13_ + 1 z_13,16_ = 0
c179: -1 z_17,13_ + 1 z_13,17_ = 0
c180: -1 z_18,13_ + 1 z_13,18_ = 0
c181: -1 z_19,13_ + 1 z_13,19_ = 0
c182: -1 z_20,13_ + 1 z_13,20_ = 0
c183:  = 0
c184: -1 z_15,14_ + 1 z_14,15_ = 0
c185: -1 z_16,14_ + 1 z_14,16_ = 0
c186: -1 z_17,14_ + 1 z_14,17_ = 0
c187: -1 z_18,14_ + 1 z_14,18_ = 0
c188: -1 z_19,14_ + 1 z_14,19_ = 0
c189: -1 z_20,14_ + 1 z_14,20_ = 0
c190:  = 0
c191: -1 z_16,15_ + 1 z_15,16_ = 0
c192: -1 z_17,15_ + 1 z_15,17_ = 0
c193: -1 z_18,15_ + 1 z_15,18_ = 0
c194: -1 z_19,15_ + 1 z_15,19_ = 0
c195: -1 z_20,15_ + 1 z_15,20_ = 0
c196:  = 0
c197: -1 z_17,16_ + 1 z_16,17_ = 0
c198: -1 z_18,16_ + 1 z_16,18_ = 0
c199: -1 z_19,16_ + 1 z_16,19_ = 0
c200: -1 z_20,16_ + 1 z_16,20_ = 0
c201:  = 0
c202: -1 z_18,17_ + 1 z_17,18_ = 0
c203: -1 z_19,17_ + 1 z_17,19_ = 0
c204: -1 z_20,17_ + 1 z_17,20_ = 0
c205:  = 0
c206: -1 z_19,18_ + 1 z_18,19_ = 0
c207: -1 z_20,18_ + 1 z_18,20_ = 0
c208:  = 0
c209: -1 z_20,19_ + 1 z_19,20_ = 0
c210:  = 0
Bounds
Binary
z_1,1_
z_2,1_
z_3,1_
z_4,1_
z_5,1_
z_6,1_
z_7,1_
z_8,1_
z_9,1_
z_10,1_
z_11,1_
z_12,1_
z_13,1_
z_14,1_
z_15,1_
z_16,1_
z_17,1_
z_18,1_
z_19,1_
z_20,1_
z_1,2_
z_2,2_
z_3,2_
z_4,2_
z_5,2_
z_6,2_
z_7,2_
z_8,2_
z_9,2_
z_10,2_
z_11,2_
z_12,2_
z_13,2_
z_14,2_
z_15,2_
z_16,2_
z_17,2_
z_18,2_
z_19,2_
z_20,2_
z_1,3_
z_2,3_
z_3,3_
z_4,3_
z_5,3_
z_6,3_
z_7,3_
z_8,3_
z_9,3_
z_10,3_
z_11,3_
z_12,3_
z_13,3_
z_14,3_
z_15,3_
z_16,3_
z_17,3_
z_18,3_
z_19,3_
z_20,3_
z_1,4_
z_2,4_
z_3,4_
z_4,4_
z_5,4_
z_6,4_
z_7,4_
z_8,4_
z_9,4_
z_10,4_
z_11,4_
z_12,4_
z_13,4_
z_14,4_
z_15,4_
z_16,4_
z_17,4_
z_18,4_
z_19,4_
z_20,4_
z_1,5_
z_2,5_
z_3,5_
z_4,5_
z_5,5_
z_6,5_
z_7,5_
z_8,5_
z_9,5_
z_10,5_
z_11,5_
z_12,5_
z_13,5_
z_14,5_
z_15,5_
z_16,5_
z_17,5_
z_18,5_
z_19,5_
z_20,5_
z_1,6_
z_2,6_
z_3,6_
z_4,6_
z_5,6_
z_6,6_
z_7,6_
z_8,6_
z_9,6_
z_10,6_
z_11,6_
z_12,6_
z_13,6_
z_14,6_
z_15,6_
z_16,6_
z_17,6_
z_18,6_
z_19,6_
z_20,6_
z_1,7_
z_2,7_
z_3,7_
z_4,7_
z_5,7_
z_6,7_
z_7,7_
z_8,7_
z_9,7_
z_10,7_
z_11,7_
z_12,7_
z_13,7_
z_14,7_
z_15,7_
z_16,7_
z_17,7_
z_18,7_
z_19,7_
z_20,7_
z_1,8_
z_2,8_
z_3,8_
z_4,8_
z_5,8_
z_6,8_
z_7,8_
z_8,8_
z_9,8_
z_10,8_
z_11,8_
z_12,8_
z_13,8_
z_14,8_
z_15,8_
z_16,8_
z_17,8_
z_18,8_
z_19,8_
z_20,8_
z_1,9_
z_2,9_
z_3,9_
z_4,9_
z_5,9_
z_6,9_
z_7,9_
z_8,9_
z_9,9_
z_10,9_
z_11,9_
z_12,9_
z_13,9_
z_14,9_
z_15,9_
z_16,9_
z_17,9_
z_18,9_
z_19,9_
z_20,9_
z_1,10_
z_2,10_
z_3,10_
z_4,10_
z_5,10_
z_6,10_
z_7,10_
z_8,10_
z_9,10_
z_10,10_
z_11,10_
z_12,10_
z_13,10_
z_14,10_
z_15,10_
z_16,10_
z_17,10_
z_18,10_
z_19,10_
z_20,10_
z_1,11_
z_2,11_
z_3,11_
z_4,11_
z_5,11_
z_6,11_
z_7,11_
z_8,11_
z_9,11_
z_10,11_
z_11,11_
z_12,11_
z_13,11_
z_14,11_
z_15,11_
z_16,11_
z_17,11_
z_18,11_
z_19,11_
z_20,11_
z_1,12_
z_2,12_
z_3,12_
z_4,12_
z_5,12_
z_6,12_
z_7,12_
z_8,12_
z_9,12_
z_10,12_
z_11,12_
z_12,12_
z_13,12_
z_14,12_
z_15,12_
z_16,12_
z_17,12_
z_18,12_
z_19,12_
z_20,12_
z_1,13_
z_2,13_
z_3,13_
z_4,13_
z_5,13_
z_6,13_
z_7,13_
z_8,13_
z_9,13_
z_10,13_
z_11,13_
z_12,13_
z_13,13_
z_14,13_
z_15,13_
z_16,13_
z_17,13_
z_18,13_
z_19,13_
z_20,13_
z_1,14_
z_2,14_
z_3,14_
z_4,14_
z_5,14_
z_6,14_
z_7,14_
z_8,14_
z_9,14_
z_10,14_
z_11,14_
z_12,14_
z_13,14_
z_14,14_
z_15,14_
z_16,14_
z_17,14_
z_18,14_
z_19,14_
z_20,14_
z_1,15_
z_2,15_
z_3,15_
z_4,15_
z_5,15_
z_6,15_
z_7,15_
z_8,15_
z_9,15_
z_10,15_
z_11,15_
z_12,15_
z_13,15_
z_14,15_
z_15,15_
z_16,15_
z_17,15_
z_18,15_
z_19,15_
z_20,15_
z_1,16_
z_2,16_
z_3,16_
z_4,16_
z_5,16_
z_6,16_
z_7,16_
z_8,16_
z_9,16_
z_10,16_
z_11,16_
z_12,16_
z_13,16_
z_14,16_
z_15,16_
z_16,16_
z_17,16_
z_18,16_
z_19,16_
z_20,16_
z_1,17_
z_2,17_
z_3,17_
z_4,17_
z_5,17_
z_6,17_
z_7,17_
z_8,17_
z_9,17_
z_10,17_
z_11,17_
z_12,17_
z_13,17_
z_14,17_
z_15,17_
z_16,17_
z_17,17_
z_18,17_
z_19,17_
z_20,17_
z_1,18_
z_2,18_
z_3,18_
z_4,18_
z_5,18_
z_6,18_
z_7,18_
z_8,18_
z_9,18_
z_10,18_
z_11,18_
z_12,18_
z_13,18_
z_14,18_
z_15,18_
z_16,18_
z_17,18_
z_18,18_
z_19,18_
z_20,18_
z_1,19_
z_2,19_
z_3,19_
z_4,19_
z_5,19_
z_6,19_
z_7,19_
z_8,19_
z_9,19_
z_10,19_
z_11,19_
z_12,19_
z_13,19_
z_14,19_
z_15,19_
z_16,19_
z_17,19_
z_18,19_
z_19,19_
z_20,19_
z_1,20_
z_2,20_
z_3,20_
z_4,20_
z_5,20_
z_6,20_
z_7,20_
z_8,20_
z_9,20_
z_10,20_
z_11,20_
z_12,20_
z_13,20_
z_14,20_
z_15,20_
z_16,20_
z_17,20_
z_18,20_
z_19,20_
z_20,20_
t_1,1_
t_2,1_
t_3,1_
t_4,1_
t_5,1_
t_6,1_
t_7,1_
t_8,1_
t_9,1_
t_10,1_
t_11,1_
t_12,1_
t_13,1_
t_14,1_
t_15,1_
t_16,1_
t_17,1_
t_18,1_
t_19,1_
t_20,1_
t_1,2_
t_2,2_
t_3,2_
t_4,2_
t_5,2_
t_6,2_
t_7,2_
t_8,2_
t_9,2_
t_10,2_
t_11,2_
t_12,2_
t_13,2_
t_14,2_
t_15,2_
t_16,2_
t_17,2_
t_18,2_
t_19,2_
t_20,2_
t_1,3_
t_2,3_
t_3,3_
t_4,3_
t_5,3_
t_6,3_
t_7,3_
t_8,3_
t_9,3_
t_10,3_
t_11,3_
t_12,3_
t_13,3_
t_14,3_
t_15,3_
t_16,3_
t_17,3_
t_18,3_
t_19,3_
t_20,3_
t_1,4_
t_2,4_
t_3,4_
t_4,4_
t_5,4_
t_6,4_
t_7,4_
t_8,4_
t_9,4_
t_10,4_
t_11,4_
t_12,4_
t_13,4_
t_14,4_
t_15,4_
t_16,4_
t_17,4_
t_18,4_
t_19,4_
t_20,4_
t_1,5_
t_2,5_
t_3,5_
t_4,5_
t_5,5_
t_6,5_
t_7,5_
t_8,5_
t_9,5_
t_10,5_
t_11,5_
t_12,5_
t_13,5_
t_14,5_
t_15,5_
t_16,5_
t_17,5_
t_18,5_
t_19,5_
t_20,5_
t_1,6_
t_2,6_
t_3,6_
t_4,6_
t_5,6_
t_6,6_
t_7,6_
t_8,6_
t_9,6_
t_10,6_
t_11,6_
t_12,6_
t_13,6_
t_14,6_
t_15,6_
t_16,6_
t_17,6_
t_18,6_
t_19,6_
t_20,6_
t_1,7_
t_2,7_
t_3,7_
t_4,7_
t_5,7_
t_6,7_
t_7,7_
t_8,7_
t_9,7_
t_10,7_
t_11,7_
t_12,7_
t_13,7_
t_14,7_
t_15,7_
t_16,7_
t_17,7_
t_18,7_
t_19,7_
t_20,7_
t_1,8_
t_2,8_
t_3,8_
t_4,8_
t_5,8_
t_6,8_
t_7,8_
t_8,8_
t_9,8_
t_10,8_
t_11,8_
t_12,8_
t_13,8_
t_14,8_
t_15,8_
t_16,8_
t_17,8_
t_18,8_
t_19,8_
t_20,8_
t_1,9_
t_2,9_
t_3,9_
t_4,9_
t_5,9_
t_6,9_
t_7,9_
t_8,9_
t_9,9_
t_10,9_
t_11,9_
t_12,9_
t_13,9_
t_14,9_
t_15,9_
t_16,9_
t_17,9_
t_18,9_
t_19,9_
t_20,9_
t_1,10_
t_2,10_
t_3,10_
t_4,10_
t_5,10_
t_6,10_
t_7,10_
t_8,10_
t_9,10_
t_10,10_
t_11,10_
t_12,10_
t_13,10_
t_14,10_
t_15,10_
t_16,10_
t_17,10_
t_18,10_
t_19,10_
t_20,10_
t_1,11_
t_2,11_
t_3,11_
t_4,11_
t_5,11_
t_6,11_
t_7,11_
t_8,11_
t_9,11_
t_10,11_
t_11,11_
t_12,11_
t_13,11_
t_14,11_
t_15,11_
t_16,11_
t_17,11_
t_18,11_
t_19,11_
t_20,11_
t_1,12_
t_2,12_
t_3,12_
t_4,12_
t_5,12_
t_6,12_
t_7,12_
t_8,12_
t_9,12_
t_10,12_
t_11,12_
t_12,12_
t_13,12_
t_14,12_
t_15,12_
t_16,12_
t_17,12_
t_18,12_
t_19,12_
t_20,12_
t_1,13_
t_2,13_
t_3,13_
t_4,13_
t_5,13_
t_6,13_
t_7,13_
t_8,13_
t_9,13_
t_10,13_
t_11,13_
t_12,13_
t_13,13_
t_14,13_
t_15,13_
t_16,13_
t_17,13_
t_18,13_
t_19,13_
t_20,13_
t_1,14_
t_2,14_
t_3,14_
t_4,14_
t_5,14_
t_6,14_
t_7,14_
t_8,14_
t_9,14_
t_10,14_
t_11,14_
t_12,14_
t_13,14_
t_14,14_
t_15,14_
t_16,14_
t_17,14_
t_18,14_
t_19,14_
t_20,14_
t_1,15_
t_2,15_
t_3,15_
t_4,15_
t_5,15_
t_6,15_
t_7,15_
t_8,15_
t_9,15_
t_10,15_
t_11,15_
t_12,15_
t_13,15_
t_14,15_
t_15,15_
t_16,15_
t_17,15_
t_18,15_
t_19,15_
t_20,15_
t_1,16_
t_2,16_
t_3,16_
t_4,16_
t_5,16_
t_6,16_
t_7,16_
t_8,16_
t_9,16_
t_10,16_
t_11,16_
t_12,16_
t_13,16_
t_14,16_
t_15,16_
t_16,16_
t_17,16_
t_18,16_
t_19,16_
t_20,16_
t_1,17_
t_2,17_
t_3,17_
t_4,17_
t_5,17_
t_6,17_
t_7,17_
t_8,17_
t_9,17_
t_10,17_
t_11,17_
t_12,17_
t_13,17_
t_14,17_
t_15,17_
t_16,17_
t_17,17_
t_18,17_
t_19,17_
t_20,17_
t_1,18_
t_2,18_
t_3,18_
t_4,18_
t_5,18_
t_6,18_
t_7,18_
t_8,18_
t_9,18_
t_10,18_
t_11,18_
t_12,18_
t_13,18_
t_14,18_
t_15,18_
t_16,18_
t_17,18_
t_18,18_
t_19,18_
t_20,18_
t_1,19_
t_2,19_
t_3,19_
t_4,19_
t_5,19_
t_6,19_
t_7,19_
t_8,19_
t_9,19_
t_10,19_
t_11,19_
t_12,19_
t_13,19_
t_14,19_
t_15,19_
t_16,19_
t_17,19_
t_18,19_
t_19,19_
t_20,19_
t_1,20_
t_2,20_
t_3,20_
t_4,20_
t_5,20_
t_6,20_
t_7,20_
t_8,20_
t_9,20_
t_10,20_
t_11,20_
t_12,20_
t_13,20_
t_14,20_
t_15,20_
t_16,20_
t_17,20_
t_18,20_
t_19,20_
t_20,20_
End
